mznc2025_probs/hitori/hitori.fzn
% Generated by MiniZinc 2.9.4
% Solver library: 
% Command line invocation: /home/vro5/minizinc-custom/bin/minizinc -O3 -c --solver mzn-fzn -I /home/vro5/Coding/minizincHLstdlib/std --allow-unbounded-vars /home/vro5/Coding/AgenticSolvers/mznc2025_probs/hitori/hitori.mzn /home/vro5/Coding/AgenticSolvers/mznc2025_probs/hitori/h5-1.dzn 

predicate fzn_if_then_else_int(array [int] of var bool: c,array [int] of int: x,var int: y);
predicate fzn_alldifferent_except_0(array [int] of var int: vs);
predicate fzn_connected(array [int] of int: from,array [int] of int: to,array [int] of var bool: ns,array [int] of var bool: es);
bool: X_INTRODUCED_18_ = false;
bool: X_INTRODUCED_22_ = false;
bool: X_INTRODUCED_23_ = true;
bool: X_INTRODUCED_24_ = false;
bool: X_INTRODUCED_28_ = false;
bool: X_INTRODUCED_32_ = false;
bool: X_INTRODUCED_33_ = true;
bool: X_INTRODUCED_34_ = false;
bool: X_INTRODUCED_38_ = false;
bool: X_INTRODUCED_40_ = false;
array [1..2] of int: X_INTRODUCED_44_ = [0,4];
array [1..2] of int: X_INTRODUCED_49_ = [0,3];
array [1..2] of int: X_INTRODUCED_52_ = [0,1];
array [1..2] of int: X_INTRODUCED_55_ = [0,2];
array [1..40] of int: to = [2,6,3,7,4,8,5,9,10,7,11,8,12,9,13,10,14,15,12,16,13,17,14,18,15,19,20,17,21,18,22,19,23,20,24,25,22,23,24,25];
array [1..40] of int: from = [1,1,2,2,3,3,4,4,5,6,6,7,7,8,8,9,9,10,11,11,12,12,13,13,14,14,15,16,16,17,17,18,18,19,19,20,21,22,23,24];
var bool: X_INTRODUCED_17_;
var bool: X_INTRODUCED_19_;
var bool: X_INTRODUCED_20_;
var bool: X_INTRODUCED_21_;
var bool: X_INTRODUCED_25_;
var bool: X_INTRODUCED_26_;
var bool: X_INTRODUCED_27_;
var bool: X_INTRODUCED_29_;
var bool: X_INTRODUCED_30_;
var bool: X_INTRODUCED_31_;
var bool: X_INTRODUCED_35_;
var bool: X_INTRODUCED_36_;
var bool: X_INTRODUCED_37_;
var bool: X_INTRODUCED_39_;
var bool: X_INTRODUCED_41_;
var 0..4: X_INTRODUCED_43_ ::var_is_introduced :: is_defined_var;
var 0..4: X_INTRODUCED_46_ ::var_is_introduced :: is_defined_var;
var 0..3: X_INTRODUCED_48_ ::var_is_introduced :: is_defined_var;
var 0..1: X_INTRODUCED_51_ ::var_is_introduced :: is_defined_var;
var 0..2: X_INTRODUCED_54_ ::var_is_introduced :: is_defined_var;
var 0..2: X_INTRODUCED_57_ ::var_is_introduced :: is_defined_var;
var 0..4: X_INTRODUCED_59_ ::var_is_introduced :: is_defined_var;
var 0..3: X_INTRODUCED_61_ ::var_is_introduced :: is_defined_var;
var 0..1: X_INTRODUCED_63_ ::var_is_introduced :: is_defined_var;
var 0..2: X_INTRODUCED_65_ ::var_is_introduced :: is_defined_var;
var 0..3: X_INTRODUCED_67_ ::var_is_introduced :: is_defined_var;
var 0..3: X_INTRODUCED_69_ ::var_is_introduced :: is_defined_var;
var 0..1: X_INTRODUCED_71_ ::var_is_introduced :: is_defined_var;
var 0..4: X_INTRODUCED_73_ ::var_is_introduced :: is_defined_var;
var 0..4: X_INTRODUCED_75_ ::var_is_introduced :: is_defined_var;
var 4..45: obj:: is_defined_var;
var 0..1: X_INTRODUCED_77_ ::var_is_introduced :: is_defined_var;
var 0..1: X_INTRODUCED_80_ ::var_is_introduced :: is_defined_var;
var 0..1: X_INTRODUCED_82_ ::var_is_introduced :: is_defined_var;
var 0..1: X_INTRODUCED_85_ ::var_is_introduced :: is_defined_var;
var 0..1: X_INTRODUCED_86_ ::var_is_introduced :: is_defined_var;
var 0..1: X_INTRODUCED_89_ ::var_is_introduced :: is_defined_var;
var 0..1: X_INTRODUCED_91_ ::var_is_introduced :: is_defined_var;
var 0..1: X_INTRODUCED_93_ ::var_is_introduced :: is_defined_var;
var 0..1: X_INTRODUCED_95_ ::var_is_introduced :: is_defined_var;
var 0..1: X_INTRODUCED_96_ ::var_is_introduced :: is_defined_var;
var 0..1: X_INTRODUCED_98_ ::var_is_introduced :: is_defined_var;
var 0..1: X_INTRODUCED_100_ ::var_is_introduced :: is_defined_var;
var 0..1: X_INTRODUCED_102_ ::var_is_introduced :: is_defined_var;
var 0..1: X_INTRODUCED_103_ ::var_is_introduced :: is_defined_var;
var 0..1: X_INTRODUCED_105_ ::var_is_introduced :: is_defined_var;
var bool: X_INTRODUCED_108_ ::var_is_introduced :: is_defined_var;
var bool: X_INTRODUCED_109_ ::var_is_introduced :: is_defined_var;
var bool: X_INTRODUCED_110_ ::var_is_introduced :: is_defined_var;
var bool: X_INTRODUCED_111_ ::var_is_introduced :: is_defined_var;
var bool: X_INTRODUCED_112_ ::var_is_introduced :: is_defined_var;
var bool: X_INTRODUCED_113_ ::var_is_introduced :: is_defined_var;
var bool: X_INTRODUCED_114_ ::var_is_introduced :: is_defined_var;
var bool: X_INTRODUCED_115_ ::var_is_introduced :: is_defined_var;
var bool: X_INTRODUCED_116_ ::var_is_introduced :: is_defined_var;
var bool: X_INTRODUCED_117_ ::var_is_introduced :: is_defined_var;
var bool: X_INTRODUCED_118_ ::var_is_introduced :: is_defined_var;
var bool: X_INTRODUCED_119_ ::var_is_introduced :: is_defined_var;
var bool: X_INTRODUCED_120_ ::var_is_introduced :: is_defined_var;
var bool: X_INTRODUCED_121_ ::var_is_introduced :: is_defined_var;
var bool: X_INTRODUCED_122_ ::var_is_introduced :: is_defined_var;
var bool: X_INTRODUCED_123_ ::var_is_introduced :: is_defined_var;
var bool: X_INTRODUCED_124_ ::var_is_introduced :: is_defined_var;
var bool: X_INTRODUCED_125_ ::var_is_introduced :: is_defined_var;
var bool: X_INTRODUCED_126_ ::var_is_introduced :: is_defined_var;
var bool: X_INTRODUCED_127_ ::var_is_introduced :: is_defined_var;
var bool: X_INTRODUCED_128_ ::var_is_introduced :: is_defined_var;
var bool: X_INTRODUCED_129_ ::var_is_introduced :: is_defined_var;
var bool: X_INTRODUCED_130_ ::var_is_introduced :: is_defined_var;
var bool: X_INTRODUCED_131_ ::var_is_introduced :: is_defined_var;
var bool: X_INTRODUCED_132_ ::var_is_introduced :: is_defined_var;
var bool: X_INTRODUCED_133_ ::var_is_introduced :: is_defined_var;
var bool: X_INTRODUCED_134_ ::var_is_introduced :: is_defined_var;
var bool: X_INTRODUCED_135_ ::var_is_introduced :: is_defined_var;
array [1..25] of var bool: X_INTRODUCED_16_:: output_array([1..25]) = [X_INTRODUCED_17_,false,X_INTRODUCED_19_,X_INTRODUCED_20_,X_INTRODUCED_21_,false,true,false,X_INTRODUCED_25_,X_INTRODUCED_26_,X_INTRODUCED_27_,false,X_INTRODUCED_29_,X_INTRODUCED_30_,X_INTRODUCED_31_,false,true,false,X_INTRODUCED_35_,X_INTRODUCED_36_,X_INTRODUCED_37_,false,X_INTRODUCED_39_,false,X_INTRODUCED_41_];
array [1..2] of var bool: X_INTRODUCED_45_ ::var_is_introduced  = [X_INTRODUCED_17_,true];
array [1..2] of var bool: X_INTRODUCED_47_ ::var_is_introduced  = [X_INTRODUCED_19_,true];
array [1..2] of var bool: X_INTRODUCED_50_ ::var_is_introduced  = [X_INTRODUCED_20_,true];
array [1..2] of var bool: X_INTRODUCED_53_ ::var_is_introduced  = [X_INTRODUCED_21_,true];
array [1..2] of var bool: X_INTRODUCED_56_ ::var_is_introduced  = [X_INTRODUCED_25_,true];
array [1..2] of var bool: X_INTRODUCED_58_ ::var_is_introduced  = [X_INTRODUCED_26_,true];
array [1..2] of var bool: X_INTRODUCED_60_ ::var_is_introduced  = [X_INTRODUCED_27_,true];
array [1..2] of var bool: X_INTRODUCED_62_ ::var_is_introduced  = [X_INTRODUCED_29_,true];
array [1..2] of var bool: X_INTRODUCED_64_ ::var_is_introduced  = [X_INTRODUCED_30_,true];
array [1..2] of var bool: X_INTRODUCED_66_ ::var_is_introduced  = [X_INTRODUCED_31_,true];
array [1..2] of var bool: X_INTRODUCED_68_ ::var_is_introduced  = [X_INTRODUCED_35_,true];
array [1..2] of var bool: X_INTRODUCED_70_ ::var_is_introduced  = [X_INTRODUCED_36_,true];
array [1..2] of var bool: X_INTRODUCED_72_ ::var_is_introduced  = [X_INTRODUCED_37_,true];
array [1..2] of var bool: X_INTRODUCED_74_ ::var_is_introduced  = [X_INTRODUCED_39_,true];
array [1..2] of var bool: X_INTRODUCED_76_ ::var_is_introduced  = [X_INTRODUCED_41_,true];
array [1..40] of var bool: edge = [X_INTRODUCED_108_,X_INTRODUCED_108_,X_INTRODUCED_109_,false,X_INTRODUCED_111_,X_INTRODUCED_109_,X_INTRODUCED_113_,X_INTRODUCED_115_,X_INTRODUCED_117_,false,X_INTRODUCED_118_,false,false,X_INTRODUCED_114_,X_INTRODUCED_119_,X_INTRODUCED_120_,X_INTRODUCED_122_,X_INTRODUCED_124_,X_INTRODUCED_118_,X_INTRODUCED_118_,X_INTRODUCED_119_,false,X_INTRODUCED_125_,X_INTRODUCED_119_,X_INTRODUCED_126_,X_INTRODUCED_128_,X_INTRODUCED_130_,false,X_INTRODUCED_131_,false,false,X_INTRODUCED_127_,X_INTRODUCED_132_,X_INTRODUCED_133_,X_INTRODUCED_127_,X_INTRODUCED_135_,X_INTRODUCED_131_,X_INTRODUCED_132_,X_INTRODUCED_132_,X_INTRODUCED_134_];
array [1..5] of var int: X_INTRODUCED_138_ ::var_is_introduced  = [X_INTRODUCED_43_,2,X_INTRODUCED_46_,X_INTRODUCED_48_,X_INTRODUCED_51_];
array [1..5] of var int: X_INTRODUCED_140_ ::var_is_introduced  = [3,0,1,X_INTRODUCED_54_,X_INTRODUCED_57_];
array [1..5] of var int: X_INTRODUCED_142_ ::var_is_introduced  = [X_INTRODUCED_59_,5,X_INTRODUCED_61_,X_INTRODUCED_63_,X_INTRODUCED_65_];
array [1..5] of var int: X_INTRODUCED_144_ ::var_is_introduced  = [2,0,5,X_INTRODUCED_67_,X_INTRODUCED_69_];
array [1..5] of var int: X_INTRODUCED_146_ ::var_is_introduced  = [X_INTRODUCED_71_,3,X_INTRODUCED_73_,5,X_INTRODUCED_75_];
array [1..5] of var int: X_INTRODUCED_148_ ::var_is_introduced  = [X_INTRODUCED_43_,3,X_INTRODUCED_59_,2,X_INTRODUCED_71_];
array [1..5] of var int: X_INTRODUCED_150_ ::var_is_introduced  = [2,0,5,0,3];
array [1..5] of var int: X_INTRODUCED_152_ ::var_is_introduced  = [X_INTRODUCED_46_,1,X_INTRODUCED_61_,5,X_INTRODUCED_73_];
array [1..5] of var int: X_INTRODUCED_154_ ::var_is_introduced  = [X_INTRODUCED_48_,X_INTRODUCED_54_,X_INTRODUCED_63_,X_INTRODUCED_67_,5];
array [1..5] of var int: X_INTRODUCED_156_ ::var_is_introduced  = [X_INTRODUCED_51_,X_INTRODUCED_57_,X_INTRODUCED_65_,X_INTRODUCED_69_,X_INTRODUCED_75_];
array [1..25] of var bool: X_INTRODUCED_157_ ::var_is_introduced  = [X_INTRODUCED_108_,true,X_INTRODUCED_109_,X_INTRODUCED_110_,X_INTRODUCED_112_,true,false,true,X_INTRODUCED_114_,X_INTRODUCED_116_,X_INTRODUCED_118_,true,X_INTRODUCED_119_,X_INTRODUCED_121_,X_INTRODUCED_123_,true,false,true,X_INTRODUCED_127_,X_INTRODUCED_129_,X_INTRODUCED_131_,true,X_INTRODUCED_132_,true,X_INTRODUCED_134_];
array [1..25] of var bool: X_INTRODUCED_158_ ::var_is_introduced  = [X_INTRODUCED_17_,false,X_INTRODUCED_19_,X_INTRODUCED_20_,X_INTRODUCED_21_,false,true,false,X_INTRODUCED_25_,X_INTRODUCED_26_,X_INTRODUCED_27_,false,X_INTRODUCED_29_,X_INTRODUCED_30_,X_INTRODUCED_31_,false,true,false,X_INTRODUCED_35_,X_INTRODUCED_36_,X_INTRODUCED_37_,false,X_INTRODUCED_39_,false,X_INTRODUCED_41_];
constraint fzn_if_then_else_int(X_INTRODUCED_45_,X_INTRODUCED_44_,X_INTRODUCED_43_):: defines_var(X_INTRODUCED_43_);
constraint fzn_if_then_else_int(X_INTRODUCED_47_,X_INTRODUCED_44_,X_INTRODUCED_46_):: defines_var(X_INTRODUCED_46_);
constraint fzn_if_then_else_int(X_INTRODUCED_50_,X_INTRODUCED_49_,X_INTRODUCED_48_):: defines_var(X_INTRODUCED_48_);
constraint fzn_if_then_else_int(X_INTRODUCED_53_,X_INTRODUCED_52_,X_INTRODUCED_51_):: defines_var(X_INTRODUCED_51_);
constraint fzn_if_then_else_int(X_INTRODUCED_56_,X_INTRODUCED_55_,X_INTRODUCED_54_):: defines_var(X_INTRODUCED_54_);
constraint fzn_if_then_else_int(X_INTRODUCED_58_,X_INTRODUCED_55_,X_INTRODUCED_57_):: defines_var(X_INTRODUCED_57_);
constraint fzn_if_then_else_int(X_INTRODUCED_60_,X_INTRODUCED_44_,X_INTRODUCED_59_):: defines_var(X_INTRODUCED_59_);
constraint fzn_if_then_else_int(X_INTRODUCED_62_,X_INTRODUCED_49_,X_INTRODUCED_61_):: defines_var(X_INTRODUCED_61_);
constraint fzn_if_then_else_int(X_INTRODUCED_64_,X_INTRODUCED_52_,X_INTRODUCED_63_):: defines_var(X_INTRODUCED_63_);
constraint fzn_if_then_else_int(X_INTRODUCED_66_,X_INTRODUCED_55_,X_INTRODUCED_65_):: defines_var(X_INTRODUCED_65_);
constraint fzn_if_then_else_int(X_INTRODUCED_68_,X_INTRODUCED_49_,X_INTRODUCED_67_):: defines_var(X_INTRODUCED_67_);
constraint fzn_if_then_else_int(X_INTRODUCED_70_,X_INTRODUCED_49_,X_INTRODUCED_69_):: defines_var(X_INTRODUCED_69_);
constraint fzn_if_then_else_int(X_INTRODUCED_72_,X_INTRODUCED_52_,X_INTRODUCED_71_):: defines_var(X_INTRODUCED_71_);
constraint fzn_if_then_else_int(X_INTRODUCED_74_,X_INTRODUCED_44_,X_INTRODUCED_73_):: defines_var(X_INTRODUCED_73_);
constraint fzn_if_then_else_int(X_INTRODUCED_76_,X_INTRODUCED_44_,X_INTRODUCED_75_):: defines_var(X_INTRODUCED_75_);
constraint fzn_alldifferent_except_0(X_INTRODUCED_138_);
constraint fzn_alldifferent_except_0(X_INTRODUCED_140_);
constraint fzn_alldifferent_except_0(X_INTRODUCED_142_);
constraint fzn_alldifferent_except_0(X_INTRODUCED_144_);
constraint fzn_alldifferent_except_0(X_INTRODUCED_146_);
constraint fzn_alldifferent_except_0(X_INTRODUCED_148_);
constraint fzn_alldifferent_except_0(X_INTRODUCED_150_);
constraint fzn_alldifferent_except_0(X_INTRODUCED_152_);
constraint fzn_alldifferent_except_0(X_INTRODUCED_154_);
constraint fzn_alldifferent_except_0(X_INTRODUCED_156_);
constraint bool_clause([],[X_INTRODUCED_19_,X_INTRODUCED_20_]);
constraint bool_clause([],[X_INTRODUCED_20_,X_INTRODUCED_21_]);
constraint bool_clause([],[X_INTRODUCED_25_,X_INTRODUCED_26_]);
constraint bool_clause([],[X_INTRODUCED_29_,X_INTRODUCED_30_]);
constraint bool_clause([],[X_INTRODUCED_30_,X_INTRODUCED_31_]);
constraint bool_clause([],[X_INTRODUCED_35_,X_INTRODUCED_36_]);
constraint bool_clause([],[X_INTRODUCED_20_,X_INTRODUCED_25_]);
constraint bool_clause([],[X_INTRODUCED_25_,X_INTRODUCED_30_]);
constraint bool_clause([],[X_INTRODUCED_30_,X_INTRODUCED_35_]);
constraint bool_clause([],[X_INTRODUCED_21_,X_INTRODUCED_26_]);
constraint bool_clause([],[X_INTRODUCED_26_,X_INTRODUCED_31_]);
constraint bool_clause([],[X_INTRODUCED_31_,X_INTRODUCED_36_]);
constraint bool_clause([],[X_INTRODUCED_36_,X_INTRODUCED_41_]);
constraint fzn_connected(from,to,X_INTRODUCED_157_,edge);
constraint bool_not(X_INTRODUCED_17_,X_INTRODUCED_108_):: defines_var(X_INTRODUCED_108_);
constraint bool_not(X_INTRODUCED_19_,X_INTRODUCED_109_):: defines_var(X_INTRODUCED_109_);
constraint bool_not(X_INTRODUCED_20_,X_INTRODUCED_110_):: defines_var(X_INTRODUCED_110_);
constraint bool_not(X_INTRODUCED_21_,X_INTRODUCED_112_):: defines_var(X_INTRODUCED_112_);
constraint bool_not(X_INTRODUCED_25_,X_INTRODUCED_114_):: defines_var(X_INTRODUCED_114_);
constraint bool_not(X_INTRODUCED_26_,X_INTRODUCED_116_):: defines_var(X_INTRODUCED_116_);
constraint bool_not(X_INTRODUCED_27_,X_INTRODUCED_118_):: defines_var(X_INTRODUCED_118_);
constraint bool_not(X_INTRODUCED_29_,X_INTRODUCED_119_):: defines_var(X_INTRODUCED_119_);
constraint bool_not(X_INTRODUCED_30_,X_INTRODUCED_121_):: defines_var(X_INTRODUCED_121_);
constraint bool_not(X_INTRODUCED_31_,X_INTRODUCED_123_):: defines_var(X_INTRODUCED_123_);
constraint bool_not(X_INTRODUCED_35_,X_INTRODUCED_127_):: defines_var(X_INTRODUCED_127_);
constraint bool_not(X_INTRODUCED_36_,X_INTRODUCED_129_):: defines_var(X_INTRODUCED_129_);
constraint bool_not(X_INTRODUCED_37_,X_INTRODUCED_131_):: defines_var(X_INTRODUCED_131_);
constraint bool_not(X_INTRODUCED_39_,X_INTRODUCED_132_):: defines_var(X_INTRODUCED_132_);
constraint bool_not(X_INTRODUCED_41_,X_INTRODUCED_134_):: defines_var(X_INTRODUCED_134_);
constraint int_lin_eq([4,4,3,1,2,2,4,3,1,2,3,3,1,4,4,-1],[X_INTRODUCED_77_,X_INTRODUCED_80_,X_INTRODUCED_82_,X_INTRODUCED_85_,X_INTRODUCED_86_,X_INTRODUCED_89_,X_INTRODUCED_91_,X_INTRODUCED_93_,X_INTRODUCED_95_,X_INTRODUCED_96_,X_INTRODUCED_98_,X_INTRODUCED_100_,X_INTRODUCED_102_,X_INTRODUCED_103_,X_INTRODUCED_105_,obj],-4):: defines_var(obj);
constraint bool2int(X_INTRODUCED_17_,X_INTRODUCED_77_):: defines_var(X_INTRODUCED_77_);
constraint bool2int(X_INTRODUCED_19_,X_INTRODUCED_80_):: defines_var(X_INTRODUCED_80_);
constraint bool2int(X_INTRODUCED_20_,X_INTRODUCED_82_):: defines_var(X_INTRODUCED_82_);
constraint bool2int(X_INTRODUCED_21_,X_INTRODUCED_85_):: defines_var(X_INTRODUCED_85_);
constraint bool2int(X_INTRODUCED_25_,X_INTRODUCED_86_):: defines_var(X_INTRODUCED_86_);
constraint bool2int(X_INTRODUCED_26_,X_INTRODUCED_89_):: defines_var(X_INTRODUCED_89_);
constraint bool2int(X_INTRODUCED_27_,X_INTRODUCED_91_):: defines_var(X_INTRODUCED_91_);
constraint bool2int(X_INTRODUCED_29_,X_INTRODUCED_93_):: defines_var(X_INTRODUCED_93_);
constraint bool2int(X_INTRODUCED_30_,X_INTRODUCED_95_):: defines_var(X_INTRODUCED_95_);
constraint bool2int(X_INTRODUCED_31_,X_INTRODUCED_96_):: defines_var(X_INTRODUCED_96_);
constraint bool2int(X_INTRODUCED_35_,X_INTRODUCED_98_):: defines_var(X_INTRODUCED_98_);
constraint bool2int(X_INTRODUCED_36_,X_INTRODUCED_100_):: defines_var(X_INTRODUCED_100_);
constraint bool2int(X_INTRODUCED_37_,X_INTRODUCED_102_):: defines_var(X_INTRODUCED_102_);
constraint bool2int(X_INTRODUCED_39_,X_INTRODUCED_103_):: defines_var(X_INTRODUCED_103_);
constraint bool2int(X_INTRODUCED_41_,X_INTRODUCED_105_):: defines_var(X_INTRODUCED_105_);
constraint array_bool_and([X_INTRODUCED_109_,X_INTRODUCED_110_],X_INTRODUCED_111_):: defines_var(X_INTRODUCED_111_);
constraint array_bool_and([X_INTRODUCED_110_,X_INTRODUCED_112_],X_INTRODUCED_113_):: defines_var(X_INTRODUCED_113_);
constraint array_bool_and([X_INTRODUCED_110_,X_INTRODUCED_114_],X_INTRODUCED_115_):: defines_var(X_INTRODUCED_115_);
constraint array_bool_and([X_INTRODUCED_112_,X_INTRODUCED_116_],X_INTRODUCED_117_):: defines_var(X_INTRODUCED_117_);
constraint array_bool_and([X_INTRODUCED_114_,X_INTRODUCED_116_],X_INTRODUCED_120_):: defines_var(X_INTRODUCED_120_);
constraint array_bool_and([X_INTRODUCED_114_,X_INTRODUCED_121_],X_INTRODUCED_122_):: defines_var(X_INTRODUCED_122_);
constraint array_bool_and([X_INTRODUCED_116_,X_INTRODUCED_123_],X_INTRODUCED_124_):: defines_var(X_INTRODUCED_124_);
constraint array_bool_and([X_INTRODUCED_119_,X_INTRODUCED_121_],X_INTRODUCED_125_):: defines_var(X_INTRODUCED_125_);
constraint array_bool_and([X_INTRODUCED_121_,X_INTRODUCED_123_],X_INTRODUCED_126_):: defines_var(X_INTRODUCED_126_);
constraint array_bool_and([X_INTRODUCED_121_,X_INTRODUCED_127_],X_INTRODUCED_128_):: defines_var(X_INTRODUCED_128_);
constraint array_bool_and([X_INTRODUCED_123_,X_INTRODUCED_129_],X_INTRODUCED_130_):: defines_var(X_INTRODUCED_130_);
constraint array_bool_and([X_INTRODUCED_127_,X_INTRODUCED_129_],X_INTRODUCED_133_):: defines_var(X_INTRODUCED_133_);
constraint array_bool_and([X_INTRODUCED_129_,X_INTRODUCED_134_],X_INTRODUCED_135_):: defines_var(X_INTRODUCED_135_);
solve :: bool_search(X_INTRODUCED_158_,input_order,indomain_max,complete) maximize obj;
